(set-info :source |printed by MathSAT|)
(declare-fun call_Age3.age_of_p () Int)
(declare-fun call_Age3.ite.next () Int)
(declare-fun call_Age.flby () Int)
(declare-fun m.next () Int)
(declare-fun param_q.next () Bool)
(declare-fun call_Age2.ite.next () Int)
(declare-fun k () Int)
(declare-fun call_Age.age_of_p () Int)
(declare-fun k.next () Int)
(declare-fun call_Age3.age_of_p.next () Int)
(declare-fun flby.next () Int)
(declare-fun flby2 () Int)
(declare-fun call_Sofar.Sofar () Bool)
(declare-fun call_Age2.age_of_p.next () Int)
(declare-fun call_Age.age_of_p.next () Int)
(declare-fun call_Sofar.Sofar.next () Bool)
(declare-fun env.next () Bool)
(declare-fun _OK_.next () Bool)
(declare-fun param_q () Bool)
(declare-fun call_Age2.flby.next () Int)
(declare-fun call_Age2.age_of_p () Int)
(declare-fun flby () Int)
(declare-fun flby2.next () Int)
(declare-fun call_Sofar.flby () Bool)
(declare-fun call_Age3.flby () Int)
(declare-fun m () Int)
(declare-fun call_Sofar.flby.next () Bool)
(declare-fun param_p () Bool)
(declare-fun env () Bool)
(declare-fun call_Age3.flby.next () Int)
(declare-fun call_Age.flby.next () Int)
(declare-fun call_Age2.flby () Int)
(declare-fun call_Age.ite.next () Int)
(declare-fun _OK_ () Bool)
(define-fun .def_320 () Bool (= call_Age3.flby.next call_Age3.age_of_p.next))
(define-fun .def_318 () Bool (= call_Sofar.flby.next call_Sofar.Sofar.next))
(define-fun .def_316 () Bool (= call_Age2.flby.next call_Age2.age_of_p.next))
(define-fun .def_314 () Bool (= call_Age.flby.next call_Age.age_of_p.next))
(define-fun .def_312 () Bool (= env.next call_Sofar.Sofar.next))
(define-fun .def_309 () Bool (= flby2.next m.next))
(define-fun .def_307 () Bool (= flby.next k.next))
(define-fun .def_301 () Int (* (- 1) call_Age3.age_of_p.next))
(define-fun .def_302 () Int (+ m.next .def_301))
(define-fun .def_303 () Int (+ k.next .def_302))
(define-fun .def_304 () Bool (<= 0 .def_303))
(define-fun .def_295 () Bool (not env.next))
(define-fun .def_305 () Bool (or .def_295 .def_304))
(define-fun .def_306 () Bool (= _OK_.next .def_305))
(define-fun .def_308 () Bool (and .def_306 .def_307))
(define-fun .def_310 () Bool (and .def_308 .def_309))
(define-fun .def_313 () Bool (and .def_310 .def_312))
(define-fun .def_315 () Bool (and .def_313 .def_314))
(define-fun .def_317 () Bool (and .def_315 .def_316))
(define-fun .def_319 () Bool (and .def_317 .def_318))
(define-fun .def_321 () Bool (and .def_319 .def_320))
(define-fun .def_228 () Bool (= call_Age3.flby call_Age3.age_of_p))
(define-fun .def_226 () Bool (= call_Sofar.flby call_Sofar.Sofar))
(define-fun .def_224 () Bool (= call_Age2.age_of_p call_Age2.flby))
(define-fun .def_222 () Bool (= call_Age.age_of_p call_Age.flby))
(define-fun .def_220 () Bool (= env call_Sofar.Sofar))
(define-fun .def_217 () Bool (= m flby2))
(define-fun .def_215 () Bool (= k flby))
(define-fun .def_209 () Int (* (- 1) call_Age3.age_of_p))
(define-fun .def_210 () Int (+ m .def_209))
(define-fun .def_211 () Int (+ k .def_210))
(define-fun .def_212 () Bool (<= 0 .def_211))
(define-fun .def_203 () Bool (not env))
(define-fun .def_213 () Bool (or .def_203 .def_212))
(define-fun .def_214 () Bool (= _OK_ .def_213))
(define-fun .def_216 () Bool (and .def_214 .def_215))
(define-fun .def_218 () Bool (and .def_216 .def_217))
(define-fun .def_221 () Bool (and .def_218 .def_220))
(define-fun .def_223 () Bool (and .def_221 .def_222))
(define-fun .def_225 () Bool (and .def_223 .def_224))
(define-fun .def_227 () Bool (and .def_225 .def_226))
(define-fun .def_229 () Bool (and .def_227 .def_228))
(define-fun .def_322 () Bool (and .def_229 .def_321))
(define-fun .def_291 () Bool (= call_Age3.ite.next call_Age3.flby.next))
(define-fun .def_284 () Bool (<= call_Age2.age_of_p.next m.next))
(define-fun .def_280 () Bool (<= 1 m.next))
(define-fun .def_278 () Bool (<= 1 k.next))
(define-fun .def_281 () Bool (and .def_278 .def_280))
(define-fun .def_275 () Bool (<= k.next call_Age.age_of_p.next))
(define-fun .def_276 () Bool (not .def_275))
(define-fun .def_277 () Bool (or param_q.next .def_276))
(define-fun .def_282 () Bool (and .def_277 .def_281))
(define-fun .def_285 () Bool (and .def_282 .def_284))
(define-fun .def_286 () Bool (and call_Sofar.Sofar .def_285))
(define-fun .def_288 () Bool (= .def_286 call_Sofar.flby.next))
(define-fun .def_270 () Bool (= call_Age2.ite.next call_Age2.flby.next))
(define-fun .def_267 () Bool (= call_Age.ite.next call_Age.flby.next))
(define-fun .def_262 () Bool (not param_q))
(define-fun .def_259 () Int (* (- 1) call_Age2.ite.next))
(define-fun .def_260 () Int (+ call_Age2.age_of_p .def_259))
(define-fun .def_261 () Bool (= .def_260 1))
(define-fun .def_263 () Bool (or .def_261 .def_262))
(define-fun .def_257 () Bool (= call_Age2.ite.next 0))
(define-fun .def_258 () Bool (or param_q .def_257))
(define-fun .def_264 () Bool (and .def_258 .def_263))
(define-fun .def_252 () Bool (= call_Age3.ite.next 0))
(define-fun .def_253 () Bool (or param_p .def_252))
(define-fun .def_247 () Int (* (- 1) call_Age3.ite.next))
(define-fun .def_248 () Int (+ call_Age3.age_of_p .def_247))
(define-fun .def_249 () Bool (= .def_248 1))
(define-fun .def_243 () Bool (not param_p))
(define-fun .def_250 () Bool (or .def_243 .def_249))
(define-fun .def_240 () Int (* (- 1) call_Age.ite.next))
(define-fun .def_241 () Int (+ call_Age.age_of_p .def_240))
(define-fun .def_242 () Bool (= .def_241 1))
(define-fun .def_244 () Bool (or .def_242 .def_243))
(define-fun .def_237 () Bool (= call_Age.ite.next 0))
(define-fun .def_239 () Bool (or .def_237 param_p))
(define-fun .def_245 () Bool (and .def_239 .def_244))
(define-fun .def_251 () Bool (and .def_245 .def_250))
(define-fun .def_254 () Bool (and .def_251 .def_253))
(define-fun .def_234 () Bool (= m flby2.next))
(define-fun .def_232 () Bool (= k flby.next))
(define-fun .def_235 () Bool (and .def_232 .def_234))
(define-fun .def_255 () Bool (and .def_235 .def_254))
(define-fun .def_265 () Bool (and .def_255 .def_264))
(define-fun .def_268 () Bool (and .def_265 .def_267))
(define-fun .def_271 () Bool (and .def_268 .def_270))
(define-fun .def_289 () Bool (and .def_271 .def_288))
(define-fun .def_292 () Bool (and .def_289 .def_291))
(define-fun .def_323 () Bool (and .def_292 .def_322))
(assert .def_323)
